units       lj
atom_style  atomic
atom_modify map hash
lattice     fcc 0.8442
variable L equal 4
region box block 0 $L 0 $L 0 $L
create_box  1 box
create_atoms    1 box
mass        1 1.0
velocity    all create 2.0 87287 loop geom
pair_style  nn 2.5
#pair_coeff  "../../../TensorFlow/saveNetwork.txt"
pair_coeff 1 1 "saveNetwork.txt"
fix nve all nve
#run 100000
