# test NN potential

units metal

lattice		fcc 5.26

region box block 0 10 0 10 0 10
create_box	1 box
create_atoms 1 box
mass 1 28.08

pair_style lj/cut 8.5125
pair_coeff	1 1 1.0 3.405 8.5125

velocity all create 300.0 376847 
#loop geom

fix 1 all nve

# pair-wise distance, this is a local compute
#compute pairDist all pair/local dist

# minimum, max and average pair-wise distance, this is a global compute
#compute minDist all reduce min c_pairDist
#compute avDist all reduce ave c_pairDist
#compute maxDist all reduce max c_pairDist

neighbor	1.0 bin

thermo 10
thermo_style custom step temp etotal pe ke press cpuremain
thermo_modify norm yes

timestep 0.001

run 1000
