units       metal
atom_style  atomic

lattice     fcc 5.26
variable L equal 5
region box block 0 $L 0 $L 0 $L

create_box  1 box
create_atoms    1 box

mass        1 28.08
velocity    all create 300.0 87287 loop geom

pair_style  nn
pair_coeff * * ../../TensorFlow/TrainingData/LJValidation/graph.dat 8.5125

fix 1 all nve

thermo 10
thermo_style custom step temp ke pe etotal cpuremain
thermo_modify norm yes

run 1000
