variable dumpForces equal 1
variable therm equal 0
variable dumpxyz equal 0
variable pseudoSim equal 1
variable nSteps equal 10	

# bulk Si via Stillinger-Weber
# test minimum distance that Si atoms can have in bulk Si

units			metal
atom_style		atomic

# tetrahedral structure: diamond
# 5.431 is lattice constant in Angstrom
variable 		L equal 1	
lattice			diamond 5.431
region myBox block 0 ${L} 0 ${L} 0 ${L}
create_box 1 myBox
create_atoms 1 box
#change_box all x delta -50 50
#change_box all y delta -50 50
#change_box all z delta -50 50

#read_restart ../Silicon/Sitherm.restart

# neural network
pair_style		nn/angular2
pair_coeff		* * ../../TensorFlow/TrainingData/20.04-13.40.10 3.77118 #3.70618783078

# mass in grams/mole -> atom number
mass            1 28.06

velocity		all create 1000.0 376847 loop geom

neighbor		1.0 bin
neigh_modify    every 1 

# integrate if ordinary simulation
if "${pseudoSim} == 0" then &
	"fix 1 all nve"

#timestep		0.001

# pair-wise distance, this is a local compute
group chosen id 4
compute pairDist chosen pair/local dist

# number of neighbours for each atom
#compute neighbours all coord/atom cutoff 3.77

# minimum, max and average pair-wise distance, this is a global compute
#compute minDist all reduce min c_pairDist
#compute avDist all reduce ave c_pairDist
#compute maxDist all reduce max c_pairDist

# compute 
#compute maxNeigh all reduce max c_neighbours
#compute minNeigh all reduce min c_neighbours
#compute aveNeigh all reduce ave c_neighbours


# computes that I output to file via fixes
compute peAtom all pe/atom
compute avePe all reduce ave c_peAtom

compute keAtom all ke/atom
compute aveKe all reduce ave c_keAtom

compute temperature all temp

compute press all pressure temperature

if "${dumpForces} == 1" then &
	"dump forces all custom 1 Data/Forces/forces.txt id fx fy fz"

if "${therm} == 1" then &
	"fix therm all ave/time 1 1 1 c_temperature c_aveKe c_avePe c_press file Data/Thermo/thermo.txt"

# local computes like pair/local can be dumped with dump local
# per-atom computes can be dumped with dump custom
# global computes like minDist must be dumped with thermo custom
thermo_style custom step temp ke pe cpuremain c_avePe etotal
thermo 1
thermo_modify norm yes

# new thermo dump
#thermo_style custom step temp etotal c_minDist c_avDist c_maxDist c_maxNeigh c_minNeigh c_aveNeigh

# dump positions for use in training
#dump stateFile all custom 100 Data/SiL10*.xyz x y z

if "${dumpxyz} == 1" then &
	"dump stateFile2 all xyz 50 tmp/L$LNN.xyz"

# pseudo simulation without integration or ordinary run
if "${pseudoSim} == 1" then &
	"rerun ../Silicon/Data/XYZData/Configs/L$LN3000SW.config dump x y z vx vy vz" &
else &
	"run ${nSteps}"	

# make directory if sampling thermodynamics
if "${therm} == 1" then &
	"shell ./makeThermoDir.sh"

# make directory if sampling forces
if "${dumpForces} == 1" then &
	"shell ./makeForcesDir.sh"


