variable dumpForces equal 0
variable therm equal 0
variable peAtom equal 0
variable dumpxyz equal 0
variable pseudoSim equal 0
variable dumpNeigh equal 0
variable dumpConfigs equal 0
variable readRestart equal 0
variable restartStep equal 10000
variable writeRestart equal 0
variable computeRdf equal 0
variable nBins equal 500

variable L equal 3
variable initTemp equal 300
variable nSteps equal 3000

# bulk Si via Stillinger-Weber
# test minimum distance that Si atoms can have in bulk Si

units			metal
atom_style		atomic

if "${readRestart} == 1" then &
	"read_restart Restarts/SiL$LT${initTemp}N${restartStep}Complete.restart"

# tetrahedral structure: diamond
# 5.431 is lattice constant in Angstrom	
lattice			diamond 5.431
region myBox block 0 $L 0 $L 0 $L
if "${readRestart} == 0" then &
	"create_box 1 myBox" &
	"create_atoms 1 box"
#change_box all x delta -50 50
#change_box all y delta -50 50
#change_box all z delta -50 50

# neural network
pair_style		nn/angular2
pair_coeff		* * ../../TensorFlow/TrainingData/NNPotentialFinal 3.77118

# mass in grams/mole -> atom number
mass            1 28.06

if "${readRestart} == 0" then &
	"velocity		all create ${initTemp} 376847 loop geom"

neighbor		1.0 bin
#neigh_modify    every 1 

# integrate if ordinary simulation
if "${pseudoSim} == 0" then &
	"fix 1 all nve"

timestep		0.001

# pair-wise distance, this is a local compute
#group chosen id 4
#compute pairDist chosen pair/local dist

# number of neighbours for each atom
#compute neighbours all coord/atom cutoff 3.77

# minimum, max and average pair-wise distance, this is a global compute
#compute minDist all reduce min c_pairDist
#compute avDist all reduce ave c_pairDist
#compute maxDist all reduce max c_pairDist

# compute 
#compute maxNeigh all reduce max c_neighbours
#compute minNeigh all reduce min c_neighbours
#compute aveNeigh all reduce ave c_neighbours


# computes that I output to file via fixes
compute peAtom all pe/atom
compute avePe all reduce ave c_peAtom

compute keAtom all ke/atom
compute aveKe all reduce ave c_keAtom

compute temperature all temp

compute press all pressure temperature

if "${dumpForces} == 1" then &
	"dump forces all custom 1 Data/Si/Forces/forces.txt id fx fy fz" &
	"dump_modify forces sort id"

if "${therm} == 1" then &
	"fix therm all ave/time 1 1 1 c_temperature c_aveKe c_avePe c_press file &
	Data/Si/Thermo/thermo.txt"

group chosen id 10 100 200
if "${peAtom} == 1" then &
	"dump therm2 chosen custom 1 Data/Si/Thermo/thermo.txt id c_peAtom"

# local computes like pair/local can be dumped with dump local
# per-atom computes can be dumped with dump custom
# global computes like minDist must be dumped with thermo custom
thermo_style custom step temp ke pe c_avePe etotal cpuremain press
thermo 1
thermo_modify norm yes

# new thermo dump
#thermo_style custom step temp etotal c_minDist c_avDist c_maxDist c_maxNeigh c_minNeigh c_aveNeigh

# dump positions for use in training
#dump stateFile all custom 100 Data/SiL10*.xyz x y z

if "${dumpConfigs} == 1" then &
	"dump configs all custom 1 &
	Data/Si/XYZData/Configs/L$LT${initTemp}Nchange.txt &
	id x y z vx vy vz"

if "${dumpxyz} == 1" then &
	"dump stateFile2 all xyz 50 tmp/L$LNN.xyz"

if "${computeRdf} == 1" then &
	"compute radialDist all rdf ${nBins}" &
	"fix radial all ave/time 100 10 1000 c_radialDist[*] &
	file Data/Si/Dist/radialDist.dat mode vector"

# pseudo simulation without integration or ordinary run
if "${pseudoSim} == 1" then &
	"rerun ../Silicon/Data/XYZData/Configs/L$LT${initTemp}N${nSteps}.txt &
	dump x y z vx vy vz" &
else &
	"run ${nSteps}"	

if "${writeRestart} == 1" then &
	"write_restart SiL$LT${initTemp}N${nSteps}.restart"

# make directory if sampling neighbour lists
if "${dumpNeigh} == 1" then &
	"shell ./makeDirs/makeTrainingDirSiBulk.sh"

# make directory if sampling thermodynamics
if "${therm} == 1 || ${peAtom} == 1" then &
	"shell ./makeDirs/makeThermoDirSi.sh"

# make directory if sampling forces
if "${dumpForces} == 1" then &
	"shell ./makeDirs/makeForcesDirSi.sh"


