variable dumpForces equal 0
variable therm equal 1
variable dumpxyz equal 0
variable pseudoSim equal 1

variable L equal 4
variable initTemp equal 1000
variable nSteps equal 1000

# test Vashishta potential for quartz

units		metal
boundary	p p p

atom_style	atomic

read_data	../Quartz/DataFiles/data.quartz

replicate       $L $L $L
velocity	all create ${initTemp} 277387 mom yes
displace_atoms	all move 0.05 0.9 0.4 units box

#change_box all x delta -50 50
#change_box all y delta -50 50
#change_box all z delta -50 50

pair_style		nn/multitype

pair_coeff	* * ../../TensorFlow/TrainingData/SiO2L4Type0NoZerosAlgoFlattened &
				../../TensorFlow/TrainingData/SiO2L4Type1NoZerosAlgoFlattened &
				Si O &
				5.5 

neighbor		0.3 bin
neigh_modify	delay 10

# integrate if ordinary simulation
if "${pseudoSim} == 0" then &
	"fix 1 all nve"

timestep	0.001

# dump thermodynamic properties
compute peAtom all pe/atom
compute avePe all reduce ave c_peAtom

compute keAtom all ke/atom
compute aveKe all reduce ave c_keAtom

compute temperature all temp

compute press all pressure temperature

if "${therm} == 1" then &
	"fix therm all ave/time 1 1 1 c_temperature c_aveKe c_avePe c_press file &
	Data/SiO2/Thermo/thermo.txt"

# dump forces
group chosen id 308 310
if "${dumpForces} == 1" then &
	"dump forces all custom 1 Data/SiO2/Forces/forces.txt id fx fy fz" &
	"dump_modify forces sort id"

# dump xyz-file
if "${dumpxyz} == 1" then &
	"dump stateFile2 all xyz 5 tmp/N${nSteps}Periodic.xyz"

thermo_style custom step temp ke pe c_avePe press etotal  
thermo 1
thermo_modify norm yes

# pseudo simulation without integration or ordinary run
if "${pseudoSim} == 1" then &
	"rerun ../Quartz/Data/XYZ/Configs/L$LT${initTemp}N${nSteps}.txt stop ${nSteps} &
	dump x y z vx vy vz" &
else &
	"run ${nSteps}"	


# make directory if sampling thermodynamics
if "${therm} == 1" then &
	"shell ./makeDirs/makeThermoDirSiO2.sh"

# make directory if sampling forces
if "${dumpForces} == 1" then &
	"shell ./makeDirs/makeForcesDirSiO2.sh"