variable dumpForces equal 1
variable therm equal 1
variable dumpxyz equal 0
variable pseudoSim equal 1

variable nAtoms equal 4
variable initTemp equal 1000
variable nSteps equal 10000

units			metal
atom_style		atomic

# tetrahedral structure: diamond
# 5.431 is lattice constant in Angstrom
variable 		L equal 5	
lattice			diamond 5.431
region myBox block 0 ${L} 0 ${L} 0 ${L}
create_box 1 myBox

if "${nAtoms} == 2" then &
	"create_atoms 1 single 10 10 10 units box" &
	"create_atoms 1 single 12.5 10 10 units box"
if "${nAtoms} == 3" then &
	"create_atoms 1 single 10 10 10 units box" &
	"create_atoms 1 single 12.5 10 10 units box" &
	"create_atoms 1 single 11.25 12.5 10 units box"
if "${nAtoms} == 4" then &
	"create_atoms 1 single 10 10 10 units box" &
	"create_atoms 1 single 12.5 10 10 units box" &
	"create_atoms 1 single 11.25 12.5 10 units box" &
	"create_atoms 1 single 11.25 11.25 12.5 units box"

# neural network
pair_style		nn/angular2
pair_coeff		* * ../../TensorFlow/TrainingData/11.05-21.16.09 3.77118 

# mass in grams/mole -> atom number
mass            1 28.06

velocity		all create ${initTemp} 376847 loop geom

neighbor		1.0 bin

fix				1 all nve

timestep		0.001

# computes that I output to file via fixes
compute peAtom all pe/atom
compute avePe all reduce ave c_peAtom

compute keAtom all ke/atom
compute aveKe all reduce ave c_keAtom

compute temperature all temp

compute press all pressure temperature

if "${dumpForces} == 1" then &
	"dump forces all custom 1 Data/Forces/forces.txt id fx fy fz"

if "${therm} == 1" then &
	"fix therm all ave/time 1 1 1 c_temperature c_aveKe c_avePe c_press file Data/Thermo/thermo.txt"

# to terminal
thermo_style custom step temp ke pe cpuremain c_avePe etotal
thermo 1000
thermo_modify norm yes

if "${dumpxyz} == 1" then &
	"dump stateFile2 all xyz 50 tmp/threeAtomsNN.xyz"

# pseudo simulation without integration or ordinary run
if "${pseudoSim} == 1" then &
	"rerun ../Silicon/Data/XYZData/Configs/${nAtoms}atomsN${nSteps}.txt &
	dump x y z vx vy vz" &
else &
	"run ${nSteps}"	

# make directory if sampling thermodynamics
if "${therm} == 1" then &
	"shell ./makeDirs/makeThermoDir.sh"

# make directory if sampling forces
if "${dumpForces} == 1" then &
	"shell ./makeDirs/makeForcesDir.sh"


