# bulk Si via Stillinger-Weber
# test minimum distance that Si atoms can have in bulk Si

units			metal
atom_style		atomic

# tetrahedral structure: diamond
# 5.431 is lattice constant in Angstrom
variable 		L equal 6
lattice			diamond 5.431
region			box block 0 ${L} 0 ${L} 0 ${L}
create_box		1 box
create_atoms	1 box

# Stillinger-Weber
pair_style		sw
pair_coeff		* * Si.sw Si #neighbours.txt

# mass in grams/mole -> atom number
mass            1 28.06

velocity		all create 1000.0 376847 loop geom

neighbor		1.0 bin

fix				1 all nve

timestep		0.001

# pair-wise distance, this is a local compute
#compute pairDist all pair/local dist

# number of neighbours for each atom
#compute neighbours all coord/atom cutoff 3.77

# minimum, max and average pair-wise distance, this is a global compute
#compute minDist all reduce min c_pairDist
#compute avDist all reduce ave c_pairDist
#compute maxDist all reduce max c_pairDist

# compute 
#compute maxNeigh all reduce max c_neighbours
#compute minNeigh all reduce min c_neighbours
#compute aveNeigh all reduce ave c_neighbours

compute peAtom all pe/atom
compute avePe all reduce ave c_peAtom

# compute radial distribution with 50 bins
#compute radialDist all rdf 50

# compute time-averaged rdf
# Nevery Nrepeat Nfreq
# Nevery: space between each step contributing to final average
# Nrepeat: number of steps contributing to final average
# Nfreq: compute final average every Nfreq time steps
# eg 2 6 100 means calculating final average every 100 time steps
# and the steps contributing to the average is 90, 92, 94, 96, 98, 100
#fix radial all ave/time 100 10 1000 c_radialDist[*] file Data/radialDist.dat mode vector

# local computes like pair/local can be dumped with dump local
# per-atom computes can be dumped with dump custom
# global computes like minDist must be dumped with thermo custom
thermo_style custom step temp ke pe c_avePe
thermo 1
thermo_modify norm yes


# new thermo dump
#thermo_style custom step temp etotal c_minDist c_avDist c_maxDist c_maxNeigh c_minNeigh c_aveNeigh

# dump positions for use in training
#dump stateFile all custom 100 Data/SiL10*.xyz x y z

#dump stateFile2 all xyz 5 Data/XYZData/SiL5300K.xyz

# sampling run
run 20000


