variable dumpForces equal 1
variable dumpNeigh equal 0
variable therm equal 0
variable dumpxyz equal 0
variable dumpConfigs equal 0

variable nAtoms equal 4
variable initTemp equal 1000
variable nSteps equal 10000

units			metal
atom_style		atomic

# tetrahedral structure: diamond
# 5.431 is lattice constant in Angstrom
variable 		L equal 5	
lattice			diamond 5.431
region myBox block 0 ${L} 0 ${L} 0 ${L}
create_box 1 myBox

if "${nAtoms} == 2" then &
	"create_atoms 1 single 10 10 10 units box" &
	"create_atoms 1 single 12.5 10 10 units box"
if "${nAtoms} == 3" then &
	"create_atoms 1 single 10 10 10 units box" &
	"create_atoms 1 single 12.5 10 10 units box" &
	"create_atoms 1 single 11.25 12.5 10 units box"
if "${nAtoms} == 4" then &
	"create_atoms 1 single 10 10 10 units box" &
	"create_atoms 1 single 12.5 10 10 units box" &
	"create_atoms 1 single 11.25 12.5 10 units box" &
	"create_atoms 1 single 11.25 11.25 12.5 units box"

# Stillinger-Weber
pair_style		mysw
if "${dumpNeigh} == 1" then &
	"pair_coeff		* * Si.sw Si write" &
else &
	"pair_coeff		* * Si.sw Si"

# mass in grams/mole -> atom number
mass            1 28.06

velocity		all create ${initTemp} 376847 loop geom

neighbor		1.0 bin
#neigh_modify    once yes

fix				1 all nve

timestep		0.001
        
# computes that I output to file via fixes
compute peAtom all pe/atom
compute avePe all reduce ave c_peAtom

compute keAtom all ke/atom
compute aveKe all reduce ave c_keAtom

compute temperature all temp

compute press all pressure temperature

if "${dumpForces} == 1" then &
	"dump forces all custom 1 Data/Forces/forces.txt id fx fy fz" &
	"dump_modify forces sort id"

if "${therm} == 1" then &
	"fix therm all ave/time 1 1 1 c_temperature c_aveKe c_avePe c_press file Data/Thermo/thermo.txt"

# to terminal
thermo_style custom step temp ke pe c_avePe etotal  
thermo 1
thermo_modify norm yes

if "${dumpxyz} == 1" then &
	"dump stateFile2 all xyz 50 tmp/threeAtomsSW.xyz"

if "${dumpConfigs} == 1" then &
	"dump configs all custom 1 Data/XYZData/Configs/${nAtoms}atomsN${nSteps}.txt &
	id x y z vx vy vz"

#compute displacement all displace/atom
#dump diffusion all custom 1 tmp/diffusion.txt id c_displacement[1] &
#c_displacement[2] c_displacement[3] c_displacement[4]

# sampling run
run ${nSteps}

# make directory if sampling thermodynamics
if "${therm} == 1" then &
	"shell ./makeDirs/makeThermoDir.sh"

# make directory if sampling forces
if "${dumpForces} == 1" then &
	"shell ./makeDirs/makeForcesDir.sh"

# make directory if sampling training data
if "${dumpNeigh} == 1" then &
	"shell ./makeDirs/makeTrainingDir${nAtoms}.sh"


