variable dumpNeigh equal 1
variable therm equal 0
variable dumpxyz equal 0
variable nSteps equal 1000

# bulk Si via Stillinger-Weber
# test minimum distance that Si atoms can have in bulk Si

units			metal
atom_style		atomic

# tetrahedral structure: diamond
# 5.431 is lattice constant in Angstrom
variable 		L equal 5	
lattice			diamond 5.431
region myBox block 0 ${L} 0 ${L} 0 ${L}
create_box 1 myBox

create_atoms 1 single 10 10 10 units box
create_atoms 1 single 12.5 10 10 units box
create_atoms 1 single 11.25 12.5 10 units box
#create_atoms 1 single 11.25 12.165 10 units box

# Stillinger-Weber
pair_style		mysw
if "${dumpNeigh} == 1" then &
	"pair_coeff		* * Si.sw Si neighbours.txt" &
else &
	"pair_coeff		* * Si.sw Si"

# mass in grams/mole -> atom number
mass            1 28.06

velocity		all create 1000.0 376847 loop geom

neighbor		1.0 bin
neigh_modify    once yes

fix				1 all nve

timestep		0.001
        
# computes that I output to file via fixes
compute peAtom all pe/atom
compute avePe all reduce ave c_peAtom

compute keAtom all ke/atom
compute aveKe all reduce ave c_keAtom

compute temperature all temp

compute press all pressure temperature

if "${therm} == 1" then &
	"fix therm all ave/time 1 1 1 c_temperature c_aveKe c_avePe c_press file Data/Thermo/thermo.txt"

# to terminal
thermo_style custom step temp ke pe c_avePe etotal  
thermo 1
thermo_modify norm yes

if "${dumpxyz} == 1" then &
	"dump stateFile2 all xyz 50 tmp/threeAtomsSW.xyz"

# sampling run
run ${nSteps}

# make directory if sampling thermodynamics
if "${therm} == 1" then &
	"shell ./makeDirectory.sh"


