variable dumpForces equal 0
variable dumpNeigh equal 0
variable useAlgo equal 0
variable therm equal 0
variable dumpxyz equal 0
variable dumpConfigs equal 0
variable restart equal 0

if "${dumpNeigh} == 1" then &
	"variable writeThermo equal 1" &
else &
	"variable writeThermo equal 100"

variable L equal 5
variable initTemp equal 500
variable nSteps equal 10000

# bulk Si via Stillinger-Weber

units			metal
atom_style		atomic

if "${restart} == 1" then &
	"read_restart SiL$LT${initTemp}.restart"

# tetrahedral structure: diamond
# 5.431 is lattice constant in Angstrom	
lattice			diamond 5.431
region myBox block 0 $L 0 $L 0 $L

if "${restart} == 0" then &
	"create_box 1 myBox" &
	"create_atoms 1 box"

#change_box all x delta -50 50
#change_box all y delta -50 50
#change_box all z delta -50 50

# Stillinger-Weber
if "${dumpNeigh} == 1" then &
	"pair_style 	mysw" &
else &
	"pair_style		sw"

pair_coeff		* * Si.sw Si

# mass in grams/mole -> atom number
mass            1 28.06

if "${restart} == 0" then &
	"velocity		all create ${initTemp} 376847 loop geom"

neighbor		1.0 bin

fix				1 all nve

timestep		0.001

# pair-wise distance, this is a local compute
#compute pairDist all pair/local dist

# minimum, max and average pair-wise distance, this is a global compute
#compute minDist all reduce min c_pairDist
#compute avDist all reduce ave c_pairDist
#compute maxDist all reduce max c_pairDist

# number of neighbours for each atom
compute neighbours all coord/atom cutoff 3.77118

# compute coordination numbers
compute maxNeigh all reduce max c_neighbours
compute minNeigh all reduce min c_neighbours
compute aveNeigh all reduce ave c_neighbours

# computes that I output to file via fixes
compute peAtom all pe/atom
compute avePe all reduce ave c_peAtom

compute keAtom all ke/atom
compute aveKe all reduce ave c_keAtom

compute temperature all temp

compute press all pressure temperature

# local computes like pair/local can be dumped with dump local
# per-atom computes can be dumped with dump custom
# global computes like minDist must be dumped with thermo custom
#thermo_style custom step temp ke pe c_avePe etotal  
thermo_style custom step c_minNeigh c_maxNeigh c_aveNeigh 
thermo ${writeThermo}
thermo_modify norm yes

# thermalize
run 30000

# displacement for diffusion
#compute displacement all displace/atom
#dump diffusion all custom 50 tmp/diffusion.txt id c_displacement[1] &
c_displacement[2] c_displacement[3] c_displacement[4]#*c_displacement[4]

group chosen id 299

if "${dumpForces} == 1" then &
	"dump forces chosen custom 1 Data/Forces/forces.txt id fx fy fz" &
	"dump_modify forces sort id"

if "${therm} == 1" then &
	"fix therm all ave/time 1 1 100 c_temperature c_aveKe c_avePe c_press file Data/Thermo/thermo.txt"

# compute radial distribution with 50 bins
#compute radialDist all rdf 50

# compute time-averaged rdf
# Nevery Nrepeat Nfreq
# Nevery: space between each step contributing to final average
# Nrepeat: number of steps contributing to final average
# Nfreq: compute final average every Nfreq time steps
# eg 2 6 100 means calculating final average every 100 time steps
# and the steps contributing to the average is 90, 92, 94, 96, 98, 100
#fix radial all ave/time 100 10 1000 c_radialDist[*] file Data/radialDist.dat mode vector

if "${dumpxyz} == 1" then &
	"dump stateFile2 all xyz 5 tmp/L$LN${nSteps}PeriodicSW.xyz"

if "${dumpConfigs} == 1" then &
	"dump configs all custom 1 Data/XYZData/Configs/L$LT${initTemp}N${nSteps}.txt &
	id x y z vx vy vz"

# dump neighbours arguments: alpha1 (alpha2) maxDelay useAlgo
if "${dumpNeigh} == 1" then &
	"compute neighList chosen neigh 3.0 5 ${useAlgo}" &
	"fix dumpNeigh chosen ave/time 1 1 1 c_neighList file tmp/tmp.dump"

# sampling run
run ${nSteps}

#write_restart SiL$LT${initTemp}.restart

# make directory if sampling thermodynamics
if "${therm} == 1" then &
	"shell ./makeDirs/makeThermoDir.sh"

# make directory if sampling forces
if "${dumpForces} == 1" then &
	"shell ./makeDirs/makeForcesDir.sh"

# make directory if sampling training data
if "${dumpNeigh} == 1" then &
	"shell ./makeDirs/makeTrainingDirBulk.sh"


