variable dumpForces equal 0
variable dumpNeigh equal 0
variable dumpTherm equal 0
variable dumpxyz equal 0
variable dumpConfigs equal 0

variable initTemp equal 1000
variable writeThermo equal 1
variable nSteps equal 10

# test Vashishta potential for quartz

units		metal
boundary	p p p

atom_style	atomic

read_data	DataFiles/data.quartz

replicate       4 4 4
velocity	all create ${initTemp} 277387 mom yes
displace_atoms	all move 0.05 0.9 0.4 units box

if "${dumpNeigh} == 1" then &
	"pair_style 	myvashishta" &
else &
	"pair_style		vashishta"

pair_coeff	* *  Potentials/SiO.1997.vashishta Si O

neighbor		0.3 bin
neigh_modify	delay 10

fix			1 all nve
timestep	0.001

#compute radialDist all rdf 50
#fix radial all ave/time 100 10 1000 c_radialDist[*] file &
#	Data/radialDist.txt mode vector

# dump thermodynamic properties
compute peAtom all pe/atom
compute avePe all reduce ave c_peAtom

compute keAtom all ke/atom
compute aveKe all reduce ave c_keAtom

compute temperature all temp

compute press all pressure temperature

if "${dumpTherm} == 1" then &
	"fix therm all ave/time 1 1 1 c_temperature c_aveKe c_avePe c_press file Data/Thermo/thermo.txt"

# dump forces
if "${dumpForces} == 1" then &
	"group chosen id 307 309" &
	"dump forces chosen custom 1 Data/Forces/forces.txt id fx fy fz" &
	"dump_modify forces sort id"

# dump xyz-file
if "${dumpxyz} == 1" then &
	"dump stateFile2 all xyz 5 tmp/N${nSteps}Periodic.xyz"

# dump configurations for rerun
if "${dumpConfigs} == 1" then &
	"dump configs all custom 1 Data/XYZ/Configs/N${nSteps}.txt &
	id x y z vx vy vz"


thermo_style custom step temp ke pe etotal press 
thermo ${writeThermo}
thermo_modify norm yes

run		${nSteps}

# make directory if sampling thermodynamics
if "${dumpTherm} == 1" then &
	"shell ./makeDirs/makeThermoDir.sh"

# make directory if sampling forces
if "${dumpForces} == 1" then &
	"shell ./makeDirs/makeForcesDir.sh"

# make directory if sampling training data
if "${dumpNeigh} == 1" then &
	"shell ./makeDirs/makeTrainingDirBulk.sh"